c Generated map
c Size: 8 * 8, weights in range: 1 to 10, walls: False, with ratio 0.0
c dim 4 of 8
c
p sp 64 112
c graph contains 64 nodes and 112 arcs
c
a 1 9 6
a 9 1 6
a 1 2 9
a 2 1 9
a 2 10 6
a 10 2 6
a 2 3 4
a 3 2 4
a 3 11 6
a 11 3 6
a 3 4 5
a 4 3 5
a 4 12 3
a 12 4 3
a 4 5 6
a 5 4 6
a 5 13 3
a 13 5 3
a 5 6 3
a 6 5 3
a 6 14 10
a 14 6 10
a 6 7 10
a 7 6 10
a 7 15 2
a 15 7 2
a 7 8 8
a 8 7 8
a 8 16 1
a 16 8 1
a 9 17 7
a 17 9 7
a 9 10 2
a 10 9 2
a 10 18 8
a 18 10 8
a 10 11 3
a 11 10 3
a 11 19 3
a 19 11 3
a 11 12 6
a 12 11 6
a 12 20 9
a 20 12 9
a 12 13 2
a 13 12 2
a 13 21 3
a 21 13 3
a 13 14 3
a 14 13 3
a 14 22 7
a 22 14 7
a 14 15 6
a 15 14 6
a 15 23 9
a 23 15 9
a 15 16 5
a 16 15 5
a 16 24 2
a 24 16 2
a 17 25 3
a 25 17 3
a 17 18 3
a 18 17 3
a 18 26 2
a 26 18 2
a 18 19 6
a 19 18 6
a 19 27 10
a 27 19 10
a 19 20 10
a 20 19 10
a 20 28 6
a 28 20 6
a 20 21 9
a 21 20 9
a 21 29 2
a 29 21 2
a 21 22 10
a 22 21 10
a 22 30 6
a 30 22 6
a 22 23 10
a 23 22 10
a 23 31 3
a 31 23 3
a 23 24 10
a 24 23 10
a 24 32 10
a 32 24 10
a 25 33 10
a 33 25 10
a 25 26 6
a 26 25 6
a 26 34 3
a 34 26 3
a 26 27 7
a 27 26 7
a 27 35 10
a 35 27 10
a 27 28 1
a 28 27 1
a 28 36 7
a 36 28 7
a 28 29 9
a 29 28 9
a 29 37 3
a 37 29 3
a 29 30 2
a 30 29 2
a 30 38 3
a 38 30 3
a 30 31 1
a 31 30 1
a 31 39 5
a 39 31 5
a 31 32 9
a 32 31 9
a 32 40 3
a 40 32 3
a 33 41 6
a 41 33 6
a 33 34 3
a 34 33 3
a 34 42 4
a 42 34 4
a 34 35 5
a 35 34 5
a 35 43 7
a 43 35 7
a 35 36 9
a 36 35 9
a 36 44 7
a 44 36 7
a 36 37 3
a 37 36 3
a 37 45 3
a 45 37 3
a 37 38 8
a 38 37 8
a 38 46 10
a 46 38 10
a 38 39 5
a 39 38 5
a 39 47 8
a 47 39 8
a 39 40 6
a 40 39 6
a 40 48 5
a 48 40 5
a 41 49 5
a 49 41 5
a 41 42 3
a 42 41 3
a 42 50 5
a 50 42 5
a 42 43 1
a 43 42 1
a 43 51 2
a 51 43 2
a 43 44 10
a 44 43 10
a 44 52 4
a 52 44 4
a 44 45 5
a 45 44 5
a 45 53 2
a 53 45 2
a 45 46 10
a 46 45 10
a 46 54 4
a 54 46 4
a 46 47 10
a 47 46 10
a 47 55 9
a 55 47 9
a 47 48 6
a 48 47 6
a 48 56 8
a 56 48 8
a 49 57 8
a 57 49 8
a 49 50 3
a 50 49 3
a 50 58 7
a 58 50 7
a 50 51 9
a 51 50 9
a 51 59 1
a 59 51 1
a 51 52 8
a 52 51 8
a 52 60 3
a 60 52 3
a 52 53 4
a 53 52 4
a 53 61 8
a 61 53 8
a 53 54 8
a 54 53 8
a 54 62 7
a 62 54 7
a 54 55 7
a 55 54 7
a 55 63 6
a 63 55 6
a 55 56 6
a 56 55 6
a 56 64 10
a 64 56 10
a 57 58 1
a 58 57 1
a 58 59 5
a 59 58 5
a 59 60 10
a 60 59 10
a 60 61 10
a 61 60 10
a 61 62 6
a 62 61 6
a 62 63 9
a 63 62 9
a 63 64 4
a 64 63 4
